language Essence 1.3

letting blksize_delta be
        function(1 --> 8, 2 --> 8, 3 --> 8, 4 --> 8, 5 --> 8, 6 --> 8, 7 --> 10, 8 --> 8, 9 --> 8, 10 --> 8, 11 --> 8,
                 12 --> 8, 13 --> 8, 14 --> 9, 15 --> 8, 16 --> 8, 17 --> 8, 18 --> 8, 19 --> 8, 20 --> 10, 21 --> 9,
                 22 --> 8, 23 --> 8, 24 --> 8, 25 --> 8)
letting maxcars be
        function(1 --> 9, 2 --> 9, 3 --> 9, 4 --> 9, 5 --> 9, 6 --> 9, 7 --> 10, 8 --> 9, 9 --> 9, 10 --> 10, 11 --> 10,
                 12 --> 9, 13 --> 9, 14 --> 9, 15 --> 9, 16 --> 9, 17 --> 9, 18 --> 9, 19 --> 9, 20 --> 9, 21 --> 9,
                 22 --> 9, 23 --> 9, 24 --> 10, 25 --> 9)
letting n_cars be 221
letting n_classes be 31
letting n_options be 25
letting quantity be
        function(1 --> 7, 2 --> 7, 3 --> 7, 4 --> 7, 5 --> 7, 6 --> 7, 7 --> 7, 8 --> 7, 9 --> 7, 10 --> 7, 11 --> 7,
                 12 --> 9, 13 --> 7, 14 --> 7, 15 --> 7, 16 --> 7, 17 --> 7, 18 --> 7, 19 --> 7, 20 --> 7, 21 --> 7,
                 22 --> 7, 23 --> 7, 24 --> 7, 25 --> 7, 26 --> 7, 27 --> 7, 28 --> 7, 29 --> 9, 30 --> 7, 31 --> 7)
letting usage be
        relation((1, 16), (2, 10), (2, 15), (3, 21), (4, 2), (4, 9), (4, 19), (5, 7), (5, 10), (5, 19), (5, 23), (6, 4),
                 (6, 7), (7, 8), (7, 17), (7, 25), (8, 4), (9, 25), (10, 11), (10, 12), (10, 13), (10, 19), (10, 22),
                 (10, 25), (11, 2), (12, 13), (12, 23), (13, 4), (13, 19), (13, 22), (14, 25), (15, 2), (15, 6),
                 (15, 9), (15, 17), (15, 20), (16, 4), (17, 2), (17, 11), (17, 22), (18, 1), (18, 3), (18, 7), (18, 19),
                 (18, 22), (19, 8), (19, 17), (19, 20), (19, 21), (20, 15), (20, 21), (20, 22), (21, 25), (22, 3),
                 (22, 5), (22, 25), (23, 21), (24, 13), (24, 16), (24, 24), (25, 10), (25, 21), (26, 4), (26, 10),
                 (26, 11), (26, 17), (26, 24), (27, 5), (27, 16), (27, 20), (27, 23), (28, 6), (28, 20), (29, 3),
                 (29, 13), (29, 16), (30, 2), (30, 8), (30, 11), (30, 13), (30, 22), (30, 25), (31, 4), (31, 14),
                 (31, 18), (31, 22))
$ Visualisation for usage
$  1 16
$  2 10
$  2 15
$  3 21
$  4  2
$  4  9
$  4 19
$  5  7
$  5 10
$  5 19
$  5 23
$  6  4
$  6  7
$  7  8
$  7 17
$  7 25
$  8  4
$  9 25
$ 10 11
$ 10 12
$ 10 13
$ 10 19
$ 10 22
$ 10 25
$ 11  2
$ 12 13
$ 12 23
$ 13  4
$ 13 19
$ 13 22
$ 14 25
$ 15  2
$ 15  6
$ 15  9
$ 15 17
$ 15 20
$ 16  4
$ 17  2
$ 17 11
$ 17 22
$ 18  1
$ 18  3
$ 18  7
$ 18 19
$ 18 22
$ 19  8
$ 19 17
$ 19 20
$ 19 21
$ 20 15
$ 20 21
$ 20 22
$ 21 25
$ 22  3
$ 22  5
$ 22 25
$ 23 21
$ 24 13
$ 24 16
$ 24 24
$ 25 10
$ 25 21
$ 26  4
$ 26 10
$ 26 11
$ 26 17
$ 26 24
$ 27  5
$ 27 16
$ 27 20
$ 27 23
$ 28  6
$ 28 20
$ 29  3
$ 29 13
$ 29 16
$ 30  2
$ 30  8
$ 30 11
$ 30 13
$ 30 22
$ 30 25
$ 31  4
$ 31 14
$ 31 18
$ 31 22

